(set-info :Origin "This instance was generated by: BanditFuzz-- an RL fuzzer for SMT solvers" )
(set-info :Author "Joe Scott, Fed Mora, Vijay Ganesh" )
(set-info :Contact "Joe Scott, joseph.scott@uwaterloo.ca")
(set-logic QF_BV)
(declare-const bool_0 Bool)
(declare-const bool_1 Bool)
(declare-const bool_2 Bool)
(declare-const bool_3 Bool)
(declare-const bool_4 Bool)
(declare-const bv_0 (_ BitVec 32))
(declare-const bv_1 (_ BitVec 32))
(declare-const bv_2 (_ BitVec 32))
(declare-const bv_3 (_ BitVec 32))
(declare-const bv_4 (_ BitVec 32))
(assert (and (=> (and bool_3 true) (xor bool_1 false)) (not (bvult #x0b4cdc7b  #x9bf338ba ))))
(assert (bvsgt (bvsrem (bvnand bv_1 #xc813bda2 ) (bvudiv #xdd34fead  #xa05f882e )) (bvsrem (bvnor #xc74de6ab  bv_0) (bvashr #x588ecf19  #x5a590db0 ))))
(assert (bvsge (bvnand (bvsrem bv_2 bv_4) (bvudiv #xc75cd09a  #x9883844e )) (bvor (bvnand #xcef88857  #xf79523b3 ) (bvudiv bv_3 #x93c07710 ))))
(assert (bvuge (bvashr (bvmul bv_0 bv_1) (bvlshr bv_2 bv_2)) (bvand (bvor bv_1 bv_1) (bvsdiv #x6e22841d  #xbdb9e0dd ))))
(assert (=> (bvsge (bvurem #x2ef2b088  bv_2) (bvudiv bv_1 #xcbcb7add )) (bvsgt (bvmul #x236a5a90  #xca97499a ) (bvurem bv_0 #xfb317097 ))))
(check-sat)
(exit)
